<?xml version="1.0" encoding="UTF-8"?><osil xmlns="os.optimizationservices.org"   xmlns:xsi="http://www.w3.org/2001/XMLSchema-instance" xsi:schemaLocation="os.optimizationservices.org http://www.optimizationservices.org/schemas/2.0/OSiL.xsd" ><instanceHeader><name>q_20_0_25_1</name></instanceHeader><instanceData><variables numberOfVariables="20"><var name="x1" ub="1"/><var name="x2" ub="1"/><var name="x3" ub="1"/><var name="x4" ub="1"/><var name="x5" ub="1"/><var name="x6" ub="1"/><var name="x7" ub="1"/><var name="x8" ub="1"/><var name="x9" ub="1"/><var name="x10" ub="1"/><var name="x11" ub="1"/><var name="x12" ub="1"/><var name="x13" ub="1"/><var name="x14" ub="1"/><var name="x15" ub="1"/><var name="x16" ub="1"/><var name="x17" ub="1"/><var name="x18" ub="1"/><var name="x19" ub="1"/><var name="x20" ub="1"/></variables><objectives numberOfObjectives="1"><obj maxOrMin="min" name="defObj_x21" numberOfObjCoef="20"><coef idx="0">.7333</coef><coef idx="1">.2647</coef><coef idx="2">-.5144</coef><coef idx="3">-.6792</coef><coef idx="4">-.9575</coef><coef idx="5">-.6195</coef><coef idx="6">-.3753</coef><coef idx="7">.6193</coef><coef idx="8">.1474</coef><coef idx="9">.6525</coef><coef idx="10">-.4271</coef><coef idx="11">-.679</coef><coef idx="12">-.3382</coef><coef idx="13">-.4683</coef><coef idx="14">8.96e-2</coef><coef idx="15">.107</coef><coef idx="16">-.9568</coef><coef idx="17">-.7025</coef><coef idx="18">-.7902</coef><coef idx="19">.2284</coef></obj></objectives><quadraticCoefficients  numberOfQuadraticTerms="52" ><qTerm  idx="-1"  idxOne="0"  idxTwo="1"  coef="-.6117"/><qTerm  idx="-1"  idxOne="0"  idxTwo="2"  coef="-1.8129"/><qTerm  idx="-1"  idxOne="0"  idxTwo="11"  coef="-.3188"/><qTerm  idx="-1"  idxOne="0"  idxTwo="13"  coef=".6034"/><qTerm  idx="-1"  idxOne="1"  idxTwo="5"  coef="-1.595"/><qTerm  idx="-1"  idxOne="1"  idxTwo="11"  coef="-7.85e-2"/><qTerm  idx="-1"  idxOne="2"  idxTwo="4"  coef="-1.5977"/><qTerm  idx="-1"  idxOne="2"  idxTwo="6"  coef="1.0218"/><qTerm  idx="-1"  idxOne="2"  idxTwo="14"  coef="1.007"/><qTerm  idx="-1"  idxOne="2"  idxTwo="18"  coef="-.7261"/><qTerm  idx="-1"  idxOne="3"  idxTwo="7"  coef="-1.2991"/><qTerm  idx="-1"  idxOne="3"  idxTwo="11"  coef=".3496"/><qTerm  idx="-1"  idxOne="3"  idxTwo="13"  coef=".4493"/><qTerm  idx="-1"  idxOne="4"  idxTwo="7"  coef="-1.4674"/><qTerm  idx="-1"  idxOne="4"  idxTwo="8"  coef="1.8742"/><qTerm  idx="-1"  idxOne="4"  idxTwo="13"  coef="1.4198"/><qTerm  idx="-1"  idxOne="5"  idxTwo="13"  coef="1.7508"/><qTerm  idx="-1"  idxOne="6"  idxTwo="9"  coef="-.9245"/><qTerm  idx="-1"  idxOne="6"  idxTwo="12"  coef="1.4228"/><qTerm  idx="-1"  idxOne="6"  idxTwo="14"  coef=".6879"/><qTerm  idx="-1"  idxOne="6"  idxTwo="15"  coef="-1.5367"/><qTerm  idx="-1"  idxOne="6"  idxTwo="17"  coef="-.6437"/><qTerm  idx="-1"  idxOne="7"  idxTwo="10"  coef="-1.9394"/><qTerm  idx="-1"  idxOne="7"  idxTwo="13"  coef=".4742"/><qTerm  idx="-1"  idxOne="7"  idxTwo="14"  coef="-7.75e-2"/><qTerm  idx="-1"  idxOne="7"  idxTwo="17"  coef="-.2181"/><qTerm  idx="-1"  idxOne="8"  idxTwo="11"  coef="1.9917"/><qTerm  idx="-1"  idxOne="8"  idxTwo="14"  coef="1.7145"/><qTerm  idx="-1"  idxOne="8"  idxTwo="19"  coef=".7704"/><qTerm  idx="-1"  idxOne="9"  idxTwo="9"  coef="1.0388"/><qTerm  idx="-1"  idxOne="9"  idxTwo="14"  coef="-.5008"/><qTerm  idx="-1"  idxOne="9"  idxTwo="15"  coef="1.6354"/><qTerm  idx="-1"  idxOne="10"  idxTwo="13"  coef=".216"/><qTerm  idx="-1"  idxOne="10"  idxTwo="16"  coef=".6619"/><qTerm  idx="-1"  idxOne="10"  idxTwo="17"  coef="-.7848"/><qTerm  idx="-1"  idxOne="10"  idxTwo="18"  coef="-.1379"/><qTerm  idx="-1"  idxOne="10"  idxTwo="19"  coef="-1.4819"/><qTerm  idx="-1"  idxOne="11"  idxTwo="13"  coef="-.1725"/><qTerm  idx="-1"  idxOne="11"  idxTwo="19"  coef="1.8637"/><qTerm  idx="-1"  idxOne="12"  idxTwo="14"  coef="1.5893"/><qTerm  idx="-1"  idxOne="12"  idxTwo="15"  coef="1.0944"/><qTerm  idx="-1"  idxOne="12"  idxTwo="16"  coef="1.7884"/><qTerm  idx="-1"  idxOne="12"  idxTwo="18"  coef="1.961"/><qTerm  idx="-1"  idxOne="13"  idxTwo="13"  coef="1.47e-2"/><qTerm  idx="-1"  idxOne="13"  idxTwo="16"  coef=".3278"/><qTerm  idx="-1"  idxOne="13"  idxTwo="18"  coef="1.2552"/><qTerm  idx="-1"  idxOne="14"  idxTwo="19"  coef="1.815"/><qTerm  idx="-1"  idxOne="15"  idxTwo="16"  coef=".8361"/><qTerm  idx="-1"  idxOne="16"  idxTwo="16"  coef=".9861"/><qTerm  idx="-1"  idxOne="17"  idxTwo="18"  coef="-1.5423"/><qTerm  idx="-1"  idxOne="17"  idxTwo="19"  coef=".6317"/><qTerm  idx="-1"  idxOne="19"  idxTwo="19"  coef="-.9728"/></quadraticCoefficients></instanceData></osil>
